p cnf 12 50 
-4 -3 -2 0
3 -2 8 0
11 7 -8 0
5 -10 -12 0
-5 -6 8 0
6 2 -11 0
-12 6 -8 0
-1 2 -10 0
-11 2 -12 0
-5 -10 7 0
7 8 3 0
3 -8 -4 0
11 5 -8 0
8 4 11 0
-10 -5 1 0
8 6 -7 0
-5 4 8 0
8 9 10 0
-11 -3 -1 0
-2 1 4 0
3 10 2 0
5 12 -8 0
2 7 11 0
10 11 -1 0
4 6 -5 0
1 -7 2 0
-6 -8 -3 0
-5 3 1 0
10 -4 -12 0
-9 -8 10 0
9 -1 3 0
9 6 2 0
-9 -4 6 0
11 -9 12 0
10 -11 -3 0
-3 8 -1 0
-4 -8 -2 0
-9 6 -10 0
7 4 -10 0
12 -10 -7 0
-4 9 -7 0
2 -12 6 0
10 6 -2 0
6 -2 8 0
-9 6 7 0
11 -8 -3 0
-10 -3 1 0
9 6 -8 0
-1 12 9 0
-4 -2 -6 0
